self-compositions/words_1/words_775_SAT.qaiger
aag 105 24 0 1 81
18
32
42
8
6
12
44
38
10
26
20
16
2
22
46
24
4
40
48
28
30
14
34
36
210
50 30 14
52 36 34
54 52 38
56 54 40
58 56 42
60 58 44
62 60 46
64 61 47
66 65 63
68 67 51
70 28 12
72 59 45
74 73 61
76 74 70
78 66 50
80 32 16
82 80 49
84 81 48
86 85 83
88 87 62
90 86 63
92 91 89
94 92 79
96 94 76
98 96 69
100 87 78
102 101 69
104 103 95
106 104 77
108 107 99
110 24 8
112 55 41
114 113 57
116 114 110
118 22 6
120 53 39
122 121 55
124 122 118
126 20 4
128 37 35
130 129 53
132 130 126
134 18 2
136 131 127
138 137 133
140 138 35
142 140 134
144 143 133
146 123 119
148 147 125
150 148 145
152 151 125
154 115 111
156 155 117
158 156 153
160 159 117
162 26 10
164 57 43
166 165 59
168 166 162
170 75 71
172 171 77
174 173 169
176 167 163
178 177 172
180 179 175
182 181 160
184 135 34
186 184 139
188 187 143
190 189 183
192 190 109
194 177 174
196 195 161
198 149 144
200 199 151
202 201 197
204 157 152
206 205 159
208 207 202
210 208 192
i0 2 z[0]
i1 2 z[7]
i2 2 y[4]
i3 1 x[3]
i4 1 x[2]
i5 1 x[5]
i6 2 y[5]
i7 2 y[2]
i8 1 x[4]
i9 2 z[4]
i10 2 z[1]
i11 1 x[7]
i12 1 x[0]
i13 2 z[2]
i14 2 y[6]
i15 2 z[3]
i16 1 x[1]
i17 2 y[3]
i18 2 y[7]
i19 2 z[5]
i20 2 z[6]
i21 1 x[6]
i22 2 y[0]
i23 2 y[1]
o0 bool[0]
c
simplified
  ==
    subtract
      and
        1 x
        2 z
      invert
        2 y
    << 5
      1
