self-compositions/words_1/words_775_SAT.qaiger.qdimacs
p cnf 105 244
a 1 2 3 4 5 6 7 8 0
e 9 10 11 12 13 14 15 16 17 18 19 20 21 22 23 24 25 26 27 28 29 30 31 32 33 34 35 36 37 38 39 40 41 42 43 44 45 46 47 48 49 50 51 52 53 54 55 56 57 58 59 60 61 62 63 64 65 66 67 68 69 70 71 72 73 74 75 76 77 78 79 80 81 82 83 84 85 86 87 88 89 90 91 92 93 94 95 96 97 98 99 100 101 102 103 104 105 0
-15 -7 25 0
15 -25 0
7 -25 0
-18 -17 26 0
18 -26 0
17 -26 0
-26 -19 27 0
26 -27 0
19 -27 0
-27 -20 28 0
27 -28 0
20 -28 0
-28 -21 29 0
28 -29 0
21 -29 0
-29 -22 30 0
29 -30 0
22 -30 0
-30 -23 31 0
30 -31 0
23 -31 0
30 23 32 0
-30 -32 0
-23 -32 0
32 31 33 0
-32 -33 0
-31 -33 0
33 25 34 0
-33 -34 0
-25 -34 0
-14 -6 35 0
14 -35 0
6 -35 0
29 22 36 0
-29 -36 0
-22 -36 0
36 30 37 0
-36 -37 0
-30 -37 0
-37 -35 38 0
37 -38 0
35 -38 0
-33 -25 39 0
33 -39 0
25 -39 0
-16 -8 40 0
16 -40 0
8 -40 0
-40 24 41 0
40 -41 0
-24 -41 0
40 -24 42 0
-40 -42 0
24 -42 0
42 41 43 0
-42 -43 0
-41 -43 0
43 -31 44 0
-43 -44 0
31 -44 0
-43 31 45 0
43 -45 0
-31 -45 0
45 44 46 0
-45 -46 0
-44 -46 0
-46 39 47 0
46 -47 0
-39 -47 0
-47 -38 48 0
47 -48 0
38 -48 0
-48 34 49 0
48 -49 0
-34 -49 0
43 -39 50 0
-43 -50 0
39 -50 0
50 34 51 0
-50 -51 0
-34 -51 0
51 47 52 0
-51 -52 0
-47 -52 0
-52 38 53 0
52 -53 0
-38 -53 0
53 49 54 0
-53 -54 0
-49 -54 0
-12 -4 55 0
12 -55 0
4 -55 0
27 20 56 0
-27 -56 0
-20 -56 0
56 28 57 0
-56 -57 0
-28 -57 0
-57 -55 58 0
57 -58 0
55 -58 0
-11 -3 59 0
11 -59 0
3 -59 0
26 19 60 0
-26 -60 0
-19 -60 0
60 27 61 0
-60 -61 0
-27 -61 0
-61 -59 62 0
61 -62 0
59 -62 0
-10 -2 63 0
10 -63 0
2 -63 0
18 17 64 0
-18 -64 0
-17 -64 0
64 26 65 0
-64 -65 0
-26 -65 0
-65 -63 66 0
65 -66 0
63 -66 0
-9 -1 67 0
9 -67 0
1 -67 0
65 63 68 0
-65 -68 0
-63 -68 0
68 66 69 0
-68 -69 0
-66 -69 0
-69 17 70 0
69 -70 0
-17 -70 0
-70 -67 71 0
70 -71 0
67 -71 0
71 66 72 0
-71 -72 0
-66 -72 0
61 59 73 0
-61 -73 0
-59 -73 0
73 62 74 0
-73 -74 0
-62 -74 0
-74 72 75 0
74 -75 0
-72 -75 0
75 62 76 0
-75 -76 0
-62 -76 0
57 55 77 0
-57 -77 0
-55 -77 0
77 58 78 0
-77 -78 0
-58 -78 0
-78 76 79 0
78 -79 0
-76 -79 0
79 58 80 0
-79 -80 0
-58 -80 0
-13 -5 81 0
13 -81 0
5 -81 0
28 21 82 0
-28 -82 0
-21 -82 0
82 29 83 0
-82 -83 0
-29 -83 0
-83 -81 84 0
83 -84 0
81 -84 0
37 35 85 0
-37 -85 0
-35 -85 0
85 38 86 0
-85 -86 0
-38 -86 0
86 84 87 0
-86 -87 0
-84 -87 0
83 81 88 0
-83 -88 0
-81 -88 0
88 -86 89 0
-88 -89 0
86 -89 0
89 87 90 0
-89 -90 0
-87 -90 0
90 -80 91 0
-90 -91 0
80 -91 0
67 -17 92 0
-67 -92 0
17 -92 0
-92 69 93 0
92 -93 0
-69 -93 0
93 71 94 0
-93 -94 0
-71 -94 0
94 91 95 0
-94 -95 0
-91 -95 0
-95 54 96 0
95 -96 0
-54 -96 0
88 -87 97 0
-88 -97 0
87 -97 0
97 80 98 0
-97 -98 0
-80 -98 0
74 -72 99 0
-74 -99 0
72 -99 0
99 75 100 0
-99 -100 0
-75 -100 0
100 98 101 0
-100 -101 0
-98 -101 0
78 -76 102 0
-78 -102 0
76 -102 0
102 79 103 0
-102 -103 0
-79 -103 0
103 -101 104 0
-103 -104 0
101 -104 0
-104 -96 105 0
104 -105 0
96 -105 0
105 0
